unsat
(:added-eqs                   3070774
 :arith-eq-adapter            4297
 :arith-bound-propagations-lp 207417
 :arith-conflicts             584
 :arith-diseq                 230193
 :arith-fixed-eqs             285196
 :arith-lower                 180113
 :arith-make-feasible         90852
 :arith-max-columns           1465
 :arith-max-rows              864
 :arith-offset-eqs            123278
 :arith-upper                 335767
 :binary-propagations         14711873
 :conflicts                   27374
 :decisions                   1580035
 :del-clause                  34914
 :elim-unconstrained          2
 :max-memory                  59.92
 :memory                      37.59
 :minimized-lits              234261
 :mk-bool-var                 24718
 :mk-clause                   39038
 :mk-clause-binary            65316
 :num-allocs                  713231589
 :num-checks                  1
 :propagations                19297991
 :restarts                    152
 :rlimit-count                53801630
 :time                        19.30
 :total-time                  19.52)
